10031
10011
10011
10011
10011
10011
10011
10011
10011
10011
10011
10011
10011
10011
10011
10011
10011
10011
10011
10011
10011
10011
10011
10011
10011
10011
10011
10011
10011
10011
10011
10011
10011
10011
10011
10011
10011
10011
10011
10011
10011
10011
10011
10011
10011
10011
10011
10011
10011
10011
10011
10011
10011
10011
10011
10011
10011
10011
10011
10011
10011
10011
10011
10011
10011
10011
10011
10011
10011
10011
10011
10011
10011
10011
10011
10011
10011
10011
10011
10011
10011
10011
10011
10011
10011
10011
10011
10011
10011
10011
10011
10011
10011
10011
10011
10011
10011
10011
10011
10011
10011
10011
10011
10011
10011
10011
10011
10011
10011
10011
10011
10011
10011
10011
10011
10011
10011
10011
10011
10011
10011
10011
10011
10011
10011
10011
10011
10011
10011
10011
10011
10011
10011
10011
10011
10011
10011
10011
10011
10011
10011
10011
10011
10011
10011
10011
10011
10011
10011
10011
10011
10011
10011
10011
10011
10011
10011
10011
10011
10011
10011
10011
10011
10011
10011
10011
10011
10011
10011
10011
10011
10011
10011
10011
10011
10011
10011
10011
10011
10011
10011
10011
10011
10011
10011
10011
10011
10011
10011
10011
10011
10011
10011
10011
10011
10011
10011
10011
10011
10011
10011
10011
10011
10011
10011
10011
10011
10011
10011
10011
10011
10011
10011
10011
10011
10011
10011
10011
10011
10011
10011
10011
10011
10011
10011
10011
10011
10011
10011
10011
10011
10011
10011
10011
10011
10011
10011
10011
10011
10011
10011
10011
10011
10011
10011
10011
10011
10011
10011
10011
10011
10011
10011
10011
10011
10011
10011
10011
10011
10011
10011
10011
10011
10011
10011
10011
10011
10011
10011
10011
10011
10011
10011
10011
10011
10011
10011
10011
10011
10011
10011
10011
10011
10011
10011
10011
10011
10011
10011
10011
10011
10011
10011
10011
10011
10011
10011
10011
10011
10011
10011
10011
10011
10011
10011
10011
10011
10011
10011
10011
10011
10011
10011
10011
10011
10011
10011
10011
10011
10011
10011
10011
10011
10011
10011
10011
10011
10011
10011
10011
10011
10011
10011
10011
10011
10011
10011
10011
10011
10011
10011
10011
10011
10011
10011
10011
10011
10011
10011
10011
10011
10011
10011
10011
10011
10011
10011
10011
10011
10011
10011
10011
10011
10011
10011
10011
10011
10011
10011
10011
10011
10011
10011
10011
10011
10011
10011
10011
10011
10011
10011
10011
10011
10011
10011
10011
10011
10011
10011
10011
10011
10011
10011
10011
10011
10011
10011
10011
10011
10011
10011
10011
10011
10011
10011
10011
10011
10011
10011
10011
10011
10011
10011
10011
10011
10011
10011
10011
10011
10011
10011
10011
10011
10011
10011
10011
10011
10011
10011
10011
10011
10011
10011
10011
10011
10011
10011
10011
10011
10011
10011
10011
10011
10011
10011
10011
10011
10011
10011
10011
10011
10011
10011
10011
10011
10011
10011
10011
10011
10011
10011
10011
10011
10011
10011
10011
10011
10011
10011
10011
10011
10011
10011
10011
10011
10011
10011
10011
10011
10011
10011
10011
10011
10011
10011
10011
10011
10011
10011
10011
10011
10011
10011
10011
10011
10011
10011
10011
10011
10011
10011
10011
10011
10011
10011
10011
10011
10011
10011
10011
10011
10011
10011
10011
10011
10011
10011
10011
10011
10011
10011
10011
10011
10011
10011
10011
10011
10011
10011
10011
10011
10011
10011
10011
10011
10011
10011
10011
10011
10011
10011
10011
10011
10011
10011
10011
10011
10011
10011
10011
10011
10011
10011
10011
10011
10011
10011
10011
10011
10011
10011
10011
10011
10011
10011
10011
10011
10011
10011
10011
10011
10011
10011
10011
10011
10011
10011
10011
10011
10011
10011
10011
10011
10011
10011
10011
10011
10011
10011
10011
10011
10011
10011
10011
10011
10011
10011
10011
10011
10011
10011
10011
10011
10011
10011
10011
10011
10011
10011
10011
10011
10011
10011
10011
10011
10011
10011
10011
10011
10011
10011
10011
10011
10011
10011
10011
10011
10011
10011
10011
10011
10011
10011
10011
10011
10011
10011
10011
10011
10011
10011
10011
10011
10011
10011
10011
10011
10011
10011
10011
10011
10011
10011
10011
10011
10011
10011
10011
10011
10011
10011
10011
10011
10011
10011
10011
10011
10011
10011
10011
10011
10011
10011
10011
10011
10011
10011
10011
10011
10011
10011
10011
10011
10011
10011
10011
10011
10011
10011
10011
10011
10011
10011
10011
10011
10011
10011
10011
10011
10011
10011
10011
10011
10011
10011
10011
10011
10011
10011
10011
10011
10011
10011
10011
10011
10011
10011
10011
10011
10011
10011
10011
10011
10011
10011
10011
10011
10011
10011
10011
10011
10011
10011
10011
10011
10011
10011
10011
10011
10011
10011
10011
10011
10011
10011
10011
10011
10011
10011
10011
10011
10011
10011
10011
10011
10011
10011
10011
10011
10011
10011
10011
10011
10011
10011
10011
10011
10011
10011
10011
10011
10011
10011
10011
10011
10011
10011
10011
10011
10011
10011
10011
10011
10011
10011
10011
10011
10011
10011
10011
10011
10011
10011
10011
10011
10011
10011
10011
10011
10011
10011
10011
10011
10011
10011
10011
10011
10011
10011
10011
10011
10011
10011
10011
10011
10011
10011
10011
10011
10011
10011
10011
10011
10011
10011
10011
10011
10011
10011
10011
10011
10011
10011
10011
10011
10011
10011
10011
10011
10011
10011
10011
10011
10011
10011
10011
10011
10011
10011
10011
10011
10011
10011
10011
10011
10011
10011
10011
10011
10011
10011
10011
10011
10011
10011
10011
10011
10011
10011
10011
10011
10011
10011
10011
10011
10011
10011
10011
10011
10011
10011
10011
10011
10011
10011
10011
10011
10011
10011
10011
10011
10011
10011
10011
10011
10011
10011
10011
10011
10011
10011
10011
10011
10011
10011
10011
10011
10011
10011
10011
10011
10011
10011
10011
10011
10011
10011
10011
10011
10011
10011
10011
10011
10011
10011
10011
10011
10011
10011
10011
10011
10011
10011
10011
10011
10011
10011
10011
10011
10011
10011
10011
10011
10011
10011
10011
10011
10011
10011
10011
10011
10011
10011
10011
10011
10011
10011
10011
10011
10011
10011
10011
10011
10011
10011
10011
10011
10011
10011
10011
10011
10011
10011
10011
10011
10011
10011
10011
10011
10011
10011
10011
10011
10011
10011
10011
10011
10011
10011
10011
10011
10011
10011
10011
10011
10011
10011
10011
10011
10011
10011
10011
10011
10011
10011
10011
10011
10011
10011
10011
10011
10011
10011
10011
10011
10011
10011
10011
10011
10011
10011
10011
10011
10011
10011
10011
10011
10011
10011
10011
10011
10011
10011
10011
10011
10011
10011
10011
10011
10011
10011
10011
10011
10011
10011
10011
10011
10011
10011
10011
10011
10011
10011
10011
10011
10011
10011
10011
10011
10011
10011
10011
10011
10011
10011
10011
10011
10011
10011
10011
10011
10011
10011
10011
10011
10011
10011
10011
10011
10011
10011
10011
10011
10011
10011
10011
10011
10011
10011
10011
10011
10011
10011
10011
10011
10011
10011
10011
10011
10011
10011
10011
10011
10011
10011
10011
10011
10011
10011
10011
10011
10011
10011
10011
10011
10011
10011
10011
10011
10011
10011
10011
10011
10011
10011
10011
10011
10011
10011
10011
10011
10011
10011
10011
10011
10011
10011
10011
10011
10011
10011
10011
10011
10011
10011
10011
10011
10011
10011
10011
10011
10011
10011
10011
10011
10011
10011
10011
10011
10011
10011
10011
10011
10011
10011
10011
10011
10011
10011
10011
10011
10011
10011
10011
10011
10011
10011
10011
10011
10011
10011
10011
10011
10011
10011
10011
10011
10011
10011
10011
10011
10011
10011
10011
10011
10011
10011
10011
10011
10011
10011
10011
10011
10011
10011
10011
10011
10011
10011
10011
10011
10011
10011
10011
10011
10011
10011
10011
10011
10011
10011
10011
10011
10011
10011
10011
10011
10011
10011
10011
10011
10011
10011
10011
10011
10011
10011
10011
10011
10011
10011
10011
10011
10011
10011
10011
10011
10011
10011
10011
10011
10011
10011
10011
10011
10011
10011
10011
10011
10011
10011
10011
10011
10011
10011
10011
10011
10011
10011
10011
10011
10011
10011
10011
10011
10011
10011
10011
10011
10011
10011
10011
10011
10011
10011
10011
10011
10011
10011
10011
10011
10011
10011
10011
10011
10011
10011
10011
10011
10011
10011
10011
10011
10011
10011
10011
10011
10011
10011
10011
10011
10011
10011
10011
10011
10011
10011
10011
10011
10011
10011
10011
10011
10011
10011
10011
10011
10011
10011
10011
10011
10011
10011
10011
10011
10011
10011
10011
10011
10011
10011
10011
10011
10011
10011
10011
10011
10011
10011
10011
10011
10011
10011
10011
10011
10011
10011
10011
10011
10011
10011
10011
10011
10011
10011
10011
10011
10011
10011
10011
10011
10011
10011
10011
10011
10011
10011
10011
10011
10011
10011
10011
10011
10011
10011
10011
10011
10011
10011
10011
10011
10011
10011
10011
10011
10011
10011
10011
10011
10011
10011
10011
10011
10011
10011
10011
10011
10011
10011
10011
10011
10011
10011
10011
10011
10011
10011
10011
10011
10011
10011
10011
10011
10011
10011
10011
10011
10011
10011
10011
10011
10011
10011
10011
10011
10011
10011
10011
10011
10011
10011
10011
10011
10011
10011
10011
10011
10011
10011
10011
10011
10011
10011
10011
10011
10011
10011
10011
10011
10011
10011
10011
10011
10011
10011
10011
10011
10011
10011
10011
10011
10011
10011
10011
10011
10011
10011
10011
10011
10011
10011
10011
10011
10011
10011
10011
10011
10011
10011
10011
10011
10011
10011
10011
10011
10011
10011
10011
10011
10011
10011
10011
10011
10011
10011
10011
10011
10011
10011
10011
10011
10011
10011
10011
10011
10011
10011
10011
10011
10011
10011
10011
10011
10011
10011
10011
10011
10011
10011
10011
10011
10011
10011
10011
10011
10011
10011
10011
10011
10011
10011
10011
10011
10011
10011
10011
10011
10011
10011
10011
10011
10011
10011
10011
10011
10011
10011
10011
10011
10011
10011
10011
10011
10011
10011
10011
10011
10011
10011
10011
10011
10011
10011
10011
10011
10011
10011
10011
10011
10011
10011
10011
10011
10011
10011
10011
10011
10011
10011
10011
10011
10011
10011
10011
10011
10011
10011
10011
10011
10011
10011
10011
10011
10011
10011
10011
10011
10011
10011
10011
10011
10011
10011
10011
10011
10011
10011
10011
10011
10011
10011
10011
10011
10011
10011
10011
10011
10011
10011
10011
10011
10011
10011
10011
10011
10011
10011
10011
10011
10011
10011
10011
10011
10011
10011
10011
10011
10011
10011
10011
10011
10011
10011
10011
10011
10011
10011
10011
10011
10011
10011
10011
10011
10011
10011
10011
10011
10011
10011
10011
10011
10011
10011
10011
10011
10011
10011
10011
10011
10011
10011
10011
10011
10011
10011
10011
10011
10011
10011
10011
10011
10011
10011
10011
10011
10011
10011
10011
10011
10011
10011
10011
10011
10011
10011
10011
10011
10011
10011
10011
10011
10011
10011
10011
10011
10011
10011
10011
10011
10011
10011
10011
10011
10011
10011
10011
10011
10011
10011
10011
10011
10011
10011
10011
10011
10011
10011
10011
10011
10011
10011
10011
10011
10011
10011
10011
10011
10011
10011
10011
10011
10011
10011
10011
10011
10011
10011
10011
10011
10011
10011
10011
10011
10011
10011
10011
10011
10011
10011
10011
10011
10011
10011
10011
10011
10011
10011
10011
10011
10011
10011
10011
10011
10011
10011
10011
10011
10011
10011
10011
10011
10011
10011
10011
10011
10011
10011
10011
10011
10011
10011
10011
10011
10011
10011
10011
10011
10011
10011
10011
10011
10011
10011
10011
10011
10011
10011
10011
10011
10011
10011
10011
10011
10011
10011
10011
10011
10011
10011
10011
10011
10011
10011
10011
10011
10011
10011
10011
10011
10011
10011
10011
10011
10011
10011
10011
10011
10011
10011
10011
10011
10011
10011
10011
10011
10011
10011
10011
10011
10011
10011
10011
10011
10011
10011
10011
10011
10011
10011
10011
10011
10011
10011
10011
10011
10011
10011
10011
10011
10011
10011
10011
10011
10011
10011
10011
10011
10011
10011
10011
10011
10021
10021
10011
10011
10011
10011
10011
10011
10011
10011
10011
10011
10011
10011
10011
10011
10011
10011
10011
10011
10011
10011
10011
10011
10011
10011
10011
10011
10011
10011
10011
10011
10011
10011
10011
10011
10011
10011
10011
10011
10011
10011
10011
10011
10011
10011
10011
10011
10011
10011
10011
10011
10011
10011
10011
10011
10011
10011
10011
10011
10011
10011
10011
10011
10011
10011
10011
10011
10011
10011
10011
10011
10011
10011
10011
10011
10011
10011
10011
10011
10011
10011
10011
10011
10011
10011
10011
10011
10011
10011
10011
10011
10011
10011
10011
10011
10011
10021
10021
10011
10011
10011
10011
10021
10021
10021
10021
10021
